Welcome to the CBC MILP Solver 
Version: 2.10.3 
Build Date: Dec 15 2019 

command line - /home/cdmonsalvea/AI_OR_Workflow/.venv/lib/python3.10/site-packages/pulp/solverdir/cbc/linux/64/cbc /tmp/283d6b1e1a6145428d18bbeb69d4098e-pulp.mps -sec 3600 -timeMode elapsed -branch -printingOptions all -solution /tmp/283d6b1e1a6145428d18bbeb69d4098e-pulp.sol (default strategy 1)
At line 2 NAME          MODEL
At line 3 ROWS
At line 39 COLUMNS
At line 958 RHS
At line 993 BOUNDS
At line 1011 ENDATA
Problem MODEL has 34 rows, 306 columns and 595 elements
Coin0008I MODEL read with 0 errors
seconds was changed from 1e+100 to 3600
Option for timeMode changed from cpu to elapsed
Continuous objective value is 4.51888e+06 - 0.00 seconds
Cgl0004I processed model has 34 rows, 306 columns (17 integer (17 of which binary)) and 595 elements
Cbc0038I Initial state - 17 integers unsatisfied sum - 1.45245
Cbc0038I Pass   1: suminf.    0.45245 (1) obj. 3.20456e+08 iterations 16
Cbc0038I Pass   2: suminf.    0.45245 (1) obj. 3.20456e+08 iterations 0
Cbc0038I Solution found of 3.2216e+08
Cbc0038I Relaxing continuous gives 2.05743e+08
Cbc0038I Before mini branch and bound, 0 integers at bound fixed and 256 continuous
Cbc0038I Full problem 34 rows 306 columns, reduced to 32 rows 46 columns
Cbc0038I Mini branch and bound improved solution from 2.05743e+08 to 4.41007e+07 (0.01 seconds)
Cbc0038I Freeing continuous variables gives a solution of 3.91298e+07
Cbc0038I Round again with cutoff of 3.56687e+07
Cbc0038I Pass   3: suminf.    1.30246 (9) obj. 3.56687e+07 iterations 18
Cbc0038I Pass   4: suminf.    0.83747 (11) obj. 3.56687e+07 iterations 6
Cbc0038I Pass   5: suminf.    0.76536 (7) obj. 3.56687e+07 iterations 23
Cbc0038I Pass   6: suminf.    0.76536 (7) obj. 3.56687e+07 iterations 0
Cbc0038I Pass   7: suminf.    1.31101 (7) obj. 3.56687e+07 iterations 9
Cbc0038I Pass   8: suminf.    1.31101 (7) obj. 3.56687e+07 iterations 0
Cbc0038I Pass   9: suminf.    1.30023 (7) obj. 3.56687e+07 iterations 1
Cbc0038I Pass  10: suminf.    1.30023 (7) obj. 3.56687e+07 iterations 0
Cbc0038I Pass  11: suminf.    1.31101 (7) obj. 3.56687e+07 iterations 1
Cbc0038I Pass  12: suminf.    0.17809 (7) obj. 3.56687e+07 iterations 9
Cbc0038I Pass  13: suminf.    1.46461 (7) obj. 3.56687e+07 iterations 13
Cbc0038I Pass  14: suminf.    0.95020 (7) obj. 3.56687e+07 iterations 1
Cbc0038I Pass  15: suminf.    1.31101 (7) obj. 3.56687e+07 iterations 4
Cbc0038I Pass  16: suminf.    1.31101 (7) obj. 3.56687e+07 iterations 0
Cbc0038I Pass  17: suminf.    1.30023 (7) obj. 3.56687e+07 iterations 1
Cbc0038I Pass  18: suminf.    1.30023 (7) obj. 3.56687e+07 iterations 0
Cbc0038I Pass  19: suminf.    1.31101 (7) obj. 3.56687e+07 iterations 1
Cbc0038I Pass  20: suminf.    0.64457 (9) obj. 3.56687e+07 iterations 9
Cbc0038I Pass  21: suminf.    1.31101 (7) obj. 3.56687e+07 iterations 14
Cbc0038I Pass  22: suminf.    1.31101 (7) obj. 3.56687e+07 iterations 0
Cbc0038I Pass  23: suminf.    1.30023 (7) obj. 3.56687e+07 iterations 1
Cbc0038I Pass  24: suminf.    1.30023 (7) obj. 3.56687e+07 iterations 0
Cbc0038I Pass  25: suminf.    1.31101 (7) obj. 3.56687e+07 iterations 1
Cbc0038I Pass  26: suminf.    0.19671 (5) obj. 3.56687e+07 iterations 7
Cbc0038I Pass  27: suminf.    1.23222 (7) obj. 3.56687e+07 iterations 11
Cbc0038I Pass  28: suminf.    1.23222 (7) obj. 3.56687e+07 iterations 0
Cbc0038I Pass  29: suminf.    0.91263 (5) obj. 3.56687e+07 iterations 12
Cbc0038I Pass  30: suminf.    0.60955 (7) obj. 3.56687e+07 iterations 21
Cbc0038I Pass  31: suminf.    0.60955 (7) obj. 3.56687e+07 iterations 0
Cbc0038I Pass  32: suminf.    1.31101 (7) obj. 3.56687e+07 iterations 6
Cbc0038I No solution found this major pass
Cbc0038I Before mini branch and bound, 0 integers at bound fixed and 252 continuous
Cbc0038I Full problem 34 rows 306 columns, reduced to 29 rows 48 columns
Cbc0038I Mini branch and bound improved solution from 3.91298e+07 to 3.55235e+07 (0.03 seconds)
Cbc0038I Freeing continuous variables gives a solution of 3.36019e+07
Cbc0038I Round again with cutoff of 2.77853e+07
Cbc0038I Pass  32: suminf.    1.34775 (13) obj. 2.77853e+07 iterations 4
Cbc0038I Pass  33: suminf.    0.85555 (12) obj. 2.77853e+07 iterations 7
Cbc0038I Pass  34: suminf.    0.93073 (9) obj. 2.77853e+07 iterations 18
Cbc0038I Pass  35: suminf.    0.92855 (9) obj. 2.77853e+07 iterations 1
Cbc0038I Pass  36: suminf.    1.13054 (10) obj. 2.77853e+07 iterations 6
Cbc0038I Pass  37: suminf.    1.13054 (10) obj. 2.77853e+07 iterations 0
Cbc0038I Pass  38: suminf.    0.94853 (10) obj. 2.77853e+07 iterations 1
Cbc0038I Pass  39: suminf.    0.94853 (10) obj. 2.77853e+07 iterations 0
Cbc0038I Pass  40: suminf.    1.13054 (10) obj. 2.77853e+07 iterations 1
Cbc0038I Pass  41: suminf.    0.49587 (5) obj. 2.77853e+07 iterations 9
Cbc0038I Pass  42: suminf.    0.93073 (9) obj. 2.77853e+07 iterations 13
Cbc0038I Pass  43: suminf.    0.90755 (9) obj. 2.77853e+07 iterations 1
Cbc0038I Pass  44: suminf.    1.13054 (10) obj. 2.77853e+07 iterations 5
Cbc0038I Pass  45: suminf.    1.13054 (10) obj. 2.77853e+07 iterations 0
Cbc0038I Pass  46: suminf.    0.94853 (10) obj. 2.77853e+07 iterations 1
Cbc0038I Pass  47: suminf.    0.94853 (10) obj. 2.77853e+07 iterations 0
Cbc0038I Pass  48: suminf.    1.13054 (10) obj. 2.77853e+07 iterations 1
Cbc0038I Pass  49: suminf.    1.04800 (10) obj. 2.77853e+07 iterations 4
Cbc0038I Pass  50: suminf.    1.04800 (10) obj. 2.77853e+07 iterations 0
Cbc0038I Pass  51: suminf.    1.13054 (10) obj. 2.77853e+07 iterations 4
Cbc0038I Pass  52: suminf.    1.13054 (10) obj. 2.77853e+07 iterations 0
Cbc0038I Pass  53: suminf.    0.94853 (10) obj. 2.77853e+07 iterations 1
Cbc0038I Pass  54: suminf.    0.94853 (10) obj. 2.77853e+07 iterations 0
Cbc0038I Pass  55: suminf.    1.13054 (10) obj. 2.77853e+07 iterations 1
Cbc0038I Pass  56: suminf.    0.35144 (9) obj. 2.77853e+07 iterations 7
Cbc0038I Pass  57: suminf.    1.13054 (10) obj. 2.77853e+07 iterations 7
Cbc0038I Pass  58: suminf.    1.13054 (10) obj. 2.77853e+07 iterations 0
Cbc0038I Pass  59: suminf.    0.94853 (10) obj. 2.77853e+07 iterations 1
Cbc0038I Pass  60: suminf.    0.94853 (10) obj. 2.77853e+07 iterations 0
Cbc0038I Pass  61: suminf.    1.13054 (10) obj. 2.77853e+07 iterations 1
Cbc0038I No solution found this major pass
Cbc0038I Before mini branch and bound, 0 integers at bound fixed and 257 continuous
Cbc0038I Full problem 34 rows 306 columns, reduced to 27 rows 41 columns
Cbc0038I Mini branch and bound did not improve solution (0.04 seconds)
Cbc0038I After 0.04 seconds - Feasibility pump exiting with objective of 3.36019e+07 - took 0.04 seconds
Cbc0012I Integer solution of 33601930 found by feasibility pump after 0 iterations and 0 nodes (0.04 seconds)
Cbc0012I Integer solution of 33299745 found by DiveCoefficient after 32 iterations and 0 nodes (0.05 seconds)
Cbc0031I 21 added rows had average density of 22.619048
Cbc0013I At root node, 21 cuts changed objective from 4518879.5 to 33072840 in 7 passes
Cbc0014I Cut generator 0 (Probing) - 8 row cuts average 2.0 elements, 0 column cuts (0 active)  in 0.002 seconds - new frequency is 1
Cbc0014I Cut generator 1 (Gomory) - 19 row cuts average 22.3 elements, 0 column cuts (0 active)  in 0.000 seconds - new frequency is 1
Cbc0014I Cut generator 2 (Knapsack) - 0 row cuts average 0.0 elements, 0 column cuts (0 active)  in 0.000 seconds - new frequency is -100
Cbc0014I Cut generator 3 (Clique) - 0 row cuts average 0.0 elements, 0 column cuts (0 active)  in 0.000 seconds - new frequency is -100
Cbc0014I Cut generator 4 (MixedIntegerRounding2) - 5 row cuts average 36.8 elements, 0 column cuts (0 active)  in 0.000 seconds - new frequency is 1
Cbc0014I Cut generator 5 (FlowCover) - 0 row cuts average 0.0 elements, 0 column cuts (0 active)  in 0.001 seconds - new frequency is -100
Cbc0014I Cut generator 6 (TwoMirCuts) - 25 row cuts average 27.1 elements, 0 column cuts (0 active)  in 0.001 seconds - new frequency is 1
Cbc0001I Search completed - best objective 33299744.52634781, took 41 iterations and 0 nodes (0.05 seconds)
Cbc0032I Strong branching done 4 times (4 iterations), fathomed 1 nodes and fixed 0 variables
Cbc0035I Maximum depth 0, 0 variables fixed on reduced cost
Cuts at root node changed objective from 4.51888e+06 to 3.497e+07
Probing was tried 7 times and created 8 cuts of which 0 were active after adding rounds of cuts (0.002 seconds)
Gomory was tried 7 times and created 19 cuts of which 0 were active after adding rounds of cuts (0.000 seconds)
Knapsack was tried 7 times and created 0 cuts of which 0 were active after adding rounds of cuts (0.000 seconds)
Clique was tried 7 times and created 0 cuts of which 0 were active after adding rounds of cuts (0.000 seconds)
MixedIntegerRounding2 was tried 7 times and created 5 cuts of which 0 were active after adding rounds of cuts (0.000 seconds)
FlowCover was tried 7 times and created 0 cuts of which 0 were active after adding rounds of cuts (0.001 seconds)
TwoMirCuts was tried 7 times and created 25 cuts of which 0 were active after adding rounds of cuts (0.001 seconds)
ZeroHalf was tried 1 times and created 0 cuts of which 0 were active after adding rounds of cuts (0.000 seconds)

Result - Optimal solution found

Objective value:                33299744.52634781
Enumerated nodes:               0
Total iterations:               41
Time (CPU seconds):             0.05
Time (Wallclock seconds):       0.05

Option for printingOptions changed from normal to all
Total time (CPU seconds):       0.06   (Wallclock seconds):       0.06

